17	4
16	16	14	15	
0	0	0	0	0	3	2	3	4	
6	3	5	9	3	1	5	
6	10	2	7	0	1	11	
8	0	2	6	10	3	7	8	16	
5	9	3	5	9	1	6	
200	10	9	5	0	1	17	
50	0	6	7	0	3	9	17	17	
125	5	5	0	2	2	17	17	
125	0	8	0	7	3	10	12	14	
150	7	9	5	9	3	13	15	17	
75	3	6	4	0	3	17	17	17	
150	8	1	5	0	1	17	
4	6	0	6	3	2	17	17	
5	9	4	3	8	2	17	17	
6	0	8	0	8	1	17	
6	0	10	4	0	1	17	
0	0	0	0	0	0	
